c Standarized MaxSat Instance
c{
c "sha1sum": "a73663cbcde68241ade533deabe7c9df55ff59b4",
c "nvars": 140,
c "ncls": 1260,
c "nhards": 0,
c "nhard_len_stats":
c    { "min": 0, "max": 0, "ave": 0.00,
c      "stddev": 0.00 },
c "nsofts": 1260,
c "nsoft_len_stats":
c    { "min": 2, "max": 2, "ave": 2.00,
c      "stddev": 0.00 },
c "nsoft_wts": 1,
c "soft_wt_stats":
c    { "min": 1, "max": 1, "ave": 1.00,
c      "stddev": 0.00 }
c}
c------------------------------------------------------------
c strEdges: 189  randomEdges: 441 
c degrees:  2  3 
c girth: 10 max: 8.032766  
c Hgirth mixed MAXCUT instance
c generated from an undirected graph
c to solve unweighted MaxCut
p wcnf 140 1260 1261
1 81 101 0
1 -81 -101 0
1 81 118 0
1 -81 -118 0
1 81 7 0
1 -81 -7 0
1 122 89 0
1 -122 -89 0
1 122 72 0
1 -122 -72 0
1 122 84 0
1 -122 -84 0
1 131 69 0
1 -131 -69 0
1 131 83 0
1 -131 -83 0
1 131 125 0
1 -131 -125 0
1 70 136 0
1 -70 -136 0
1 70 40 0
1 -70 -40 0
1 70 114 0
1 -70 -114 0
1 49 95 0
1 -49 -95 0
1 49 128 0
1 -49 -128 0
1 49 3 0
1 -49 -3 0
1 22 34 0
1 -22 -34 0
1 22 7 0
1 -22 -7 0
1 22 90 0
1 -22 -90 0
1 93 114 0
1 -93 -114 0
1 93 18 0
1 -93 -18 0
1 93 74 0
1 -93 -74 0
1 64 45 0
1 -64 -45 0
1 64 34 0
1 -64 -34 0
1 64 61 0
1 -64 -61 0
1 133 102 0
1 -133 -102 0
1 133 4 0
1 -133 -4 0
1 53 18 0
1 -53 -18 0
1 53 14 0
1 -53 -14 0
1 44 94 0
1 -44 -94 0
1 44 79 0
1 -44 -79 0
1 44 43 0
1 -44 -43 0
1 97 36 0
1 -97 -36 0
1 97 75 0
1 -97 -75 0
1 97 91 0
1 -97 -91 0
1 99 126 0
1 -99 -126 0
1 99 18 0
1 -99 -18 0
1 121 83 0
1 -121 -83 0
1 121 26 0
1 -121 -26 0
1 121 91 0
1 -121 -91 0
1 98 3 0
1 -98 -3 0
1 98 55 0
1 -98 -55 0
1 98 96 0
1 -98 -96 0
1 67 138 0
1 -67 -138 0
1 67 135 0
1 -67 -135 0
1 67 77 0
1 -67 -77 0
1 112 103 0
1 -112 -103 0
1 112 2 0
1 -112 -2 0
1 112 8 0
1 -112 -8 0
1 5 74 0
1 -5 -74 0
1 5 76 0
1 -5 -76 0
1 5 103 0
1 -5 -103 0
1 47 14 0
1 -47 -14 0
1 47 109 0
1 -47 -109 0
1 47 94 0
1 -47 -94 0
1 129 116 0
1 -129 -116 0
1 129 39 0
1 -129 -39 0
1 129 27 0
1 -129 -27 0
1 17 65 0
1 -17 -65 0
1 17 103 0
1 -17 -103 0
1 17 102 0
1 -17 -102 0
1 20 42 0
1 -20 -42 0
1 20 69 0
1 -20 -69 0
1 20 134 0
1 -20 -134 0
1 35 29 0
1 -35 -29 0
1 35 8 0
1 -35 -8 0
1 35 37 0
1 -35 -37 0
1 104 106 0
1 -104 -106 0
1 104 28 0
1 -104 -28 0
1 104 83 0
1 -104 -83 0
1 92 33 0
1 -92 -33 0
1 92 9 0
1 -92 -9 0
1 21 4 0
1 -21 -4 0
1 21 61 0
1 -21 -61 0
1 23 91 0
1 -23 -91 0
1 23 48 0
1 -23 -48 0
1 87 2 0
1 -87 -2 0
1 87 42 0
1 -87 -42 0
1 60 76 0
1 -60 -76 0
1 60 139 0
1 -60 -139 0
1 60 125 0
1 -60 -125 0
1 25 11 0
1 -25 -11 0
1 25 95 0
1 -25 -95 0
1 25 80 0
1 -25 -80 0
1 140 28 0
1 -140 -28 0
1 140 39 0
1 -140 -39 0
1 140 59 0
1 -140 -59 0
1 73 27 0
1 -73 -27 0
1 73 120 0
1 -73 -120 0
1 73 48 0
1 -73 -48 0
1 137 48 0
1 -137 -48 0
1 137 113 0
1 -137 -113 0
1 32 96 0
1 -32 -96 0
1 32 130 0
1 -32 -130 0
1 32 29 0
1 -32 -29 0
1 111 59 0
1 -111 -59 0
1 111 65 0
1 -111 -65 0
1 54 72 0
1 -54 -72 0
1 54 109 0
1 -54 -109 0
1 54 101 0
1 -54 -101 0
1 15 26 0
1 -15 -26 0
1 15 90 0
1 -15 -90 0
1 57 66 0
1 -57 -66 0
1 57 116 0
1 -57 -116 0
1 57 126 0
1 -57 -126 0
1 51 43 0
1 -51 -43 0
1 51 100 0
1 -51 -100 0
1 51 28 0
1 -51 -28 0
1 108 68 0
1 -108 -68 0
1 108 33 0
1 -108 -33 0
1 41 125 0
1 -41 -125 0
1 41 66 0
1 -41 -66 0
1 132 10 0
1 -132 -10 0
1 132 77 0
1 -132 -77 0
1 132 68 0
1 -132 -68 0
1 86 79 0
1 -86 -79 0
1 86 31 0
1 -86 -31 0
1 71 31 0
1 -71 -31 0
1 71 135 0
1 -71 -135 0
1 71 12 0
1 -71 -12 0
1 6 130 0
1 -6 -130 0
1 6 94 0
1 -6 -94 0
1 6 134 0
1 -6 -134 0
1 13 128 0
1 -13 -128 0
1 13 10 0
1 -13 -10 0
1 13 4 0
1 -13 -4 0
1 38 139 0
1 -38 -139 0
1 38 107 0
1 -38 -107 0
1 38 34 0
1 -38 -34 0
1 50 113 0
1 -50 -113 0
1 50 100 0
1 -50 -100 0
1 50 68 0
1 -50 -68 0
1 85 135 0
1 -85 -135 0
1 85 76 0
1 -85 -76 0
1 16 55 0
1 -16 -55 0
1 16 45 0
1 -16 -45 0
1 82 8 0
1 -82 -8 0
1 82 118 0
1 -82 -118 0
1 127 7 0
1 -127 -7 0
1 127 106 0
1 -127 -106 0
1 123 105 0
1 -123 -105 0
1 123 136 0
1 -123 -136 0
1 123 26 0
1 -123 -26 0
1 56 107 0
1 -56 -107 0
1 56 138 0
1 -56 -138 0
1 56 89 0
1 -56 -89 0
1 88 39 0
1 -88 -39 0
1 88 95 0
1 -88 -95 0
1 88 42 0
1 -88 -42 0
1 124 84 0
1 -124 -84 0
1 124 36 0
1 -124 -36 0
1 124 59 0
1 -124 -59 0
1 52 120 0
1 -52 -120 0
1 52 14 0
1 -52 -14 0
1 52 45 0
1 -52 -45 0
1 110 134 0
1 -110 -134 0
1 110 105 0
1 -110 -105 0
1 110 138 0
1 -110 -138 0
1 19 37 0
1 -19 -37 0
1 19 113 0
1 -19 -113 0
1 19 80 0
1 -19 -80 0
1 63 118 0
1 -63 -118 0
1 63 116 0
1 -63 -116 0
1 63 75 0
1 -63 -75 0
1 46 100 0
1 -46 -100 0
1 46 139 0
1 -46 -139 0
1 119 40 0
1 -119 -40 0
1 119 106 0
1 -119 -106 0
1 119 33 0
1 -119 -33 0
1 24 9 0
1 -24 -9 0
1 24 79 0
1 -24 -79 0
1 24 102 0
1 -24 -102 0
1 115 109 0
1 -115 -109 0
1 115 128 0
1 -115 -128 0
1 78 61 0
1 -78 -61 0
1 78 37 0
1 -78 -37 0
1 30 90 0
1 -30 -90 0
1 30 31 0
1 -30 -31 0
1 30 11 0
1 -30 -11 0
1 62 80 0
1 -62 -80 0
1 62 136 0
1 -62 -136 0
1 62 65 0
1 -62 -65 0
1 1 77 0
1 -1 -77 0
1 1 27 0
1 -1 -27 0
1 58 75 0
1 -58 -75 0
1 58 9 0
1 -58 -9 0
1 58 55 0
1 -58 -55 0
1 117 12 0
1 -117 -12 0
1 117 126 0
1 -117 -126 0
1 117 3 0
1 -117 -3 0
1 124 114 0
1 -124 -114 0
1 39 100 0
1 -39 -100 0
1 94 84 0
1 -94 -84 0
1 66 90 0
1 -66 -90 0
1 117 61 0
1 -117 -61 0
1 73 3 0
1 -73 -3 0
1 102 42 0
1 -102 -42 0
1 64 66 0
1 -64 -66 0
1 88 27 0
1 -88 -27 0
1 129 25 0
1 -129 -25 0
1 28 12 0
1 -28 -12 0
1 85 88 0
1 -85 -88 0
1 23 88 0
1 -23 -88 0
1 20 43 0
1 -20 -43 0
1 32 26 0
1 -32 -26 0
1 53 80 0
1 -53 -80 0
1 41 76 0
1 -41 -76 0
1 54 6 0
1 -54 -6 0
1 25 111 0
1 -25 -111 0
1 49 6 0
1 -49 -6 0
1 115 106 0
1 -115 -106 0
1 135 118 0
1 -135 -118 0
1 138 11 0
1 -138 -11 0
1 64 58 0
1 -64 -58 0
1 117 55 0
1 -117 -55 0
1 98 16 0
1 -98 -16 0
1 122 11 0
1 -122 -11 0
1 38 96 0
1 -38 -96 0
1 110 103 0
1 -110 -103 0
1 64 6 0
1 -64 -6 0
1 93 20 0
1 -93 -20 0
1 43 80 0
1 -43 -80 0
1 104 100 0
1 -104 -100 0
1 57 7 0
1 -57 -7 0
1 89 120 0
1 -89 -120 0
1 67 26 0
1 -67 -26 0
1 110 96 0
1 -110 -96 0
1 22 52 0
1 -22 -52 0
1 127 18 0
1 -127 -18 0
1 81 59 0
1 -81 -59 0
1 54 82 0
1 -54 -82 0
1 60 26 0
1 -60 -26 0
1 56 46 0
1 -56 -46 0
1 6 100 0
1 -6 -100 0
1 31 55 0
1 -31 -55 0
1 21 24 0
1 -21 -24 0
1 36 29 0
1 -36 -29 0
1 89 59 0
1 -89 -59 0
1 129 126 0
1 -129 -126 0
1 112 33 0
1 -112 -33 0
1 64 59 0
1 -64 -59 0
1 24 42 0
1 -24 -42 0
1 56 110 0
1 -56 -110 0
1 63 1 0
1 -63 -1 0
1 17 46 0
1 -17 -46 0
1 96 90 0
1 -96 -90 0
1 70 29 0
1 -70 -29 0
1 86 12 0
1 -86 -12 0
1 56 10 0
1 -56 -10 0
1 103 66 0
1 -103 -66 0
1 45 83 0
1 -45 -83 0
1 86 139 0
1 -86 -139 0
1 17 54 0
1 -17 -54 0
1 108 19 0
1 -108 -19 0
1 115 9 0
1 -115 -9 0
1 38 62 0
1 -38 -62 0
1 123 18 0
1 -123 -18 0
1 85 89 0
1 -85 -89 0
1 58 2 0
1 -58 -2 0
1 82 1 0
1 -82 -1 0
1 23 103 0
1 -23 -103 0
1 6 1 0
1 -6 -1 0
1 67 14 0
1 -67 -14 0
1 45 74 0
1 -45 -74 0
1 110 100 0
1 -110 -100 0
1 44 10 0
1 -44 -10 0
1 99 47 0
1 -99 -47 0
1 45 76 0
1 -45 -76 0
1 125 61 0
1 -125 -61 0
1 56 103 0
1 -56 -103 0
1 106 40 0
1 -106 -40 0
1 16 114 0
1 -16 -114 0
1 125 77 0
1 -125 -77 0
1 106 139 0
1 -106 -139 0
1 101 59 0
1 -101 -59 0
1 68 107 0
1 -68 -107 0
1 39 9 0
1 -39 -9 0
1 122 70 0
1 -122 -70 0
1 36 37 0
1 -36 -37 0
1 24 48 0
1 -24 -48 0
1 73 41 0
1 -73 -41 0
1 17 13 0
1 -17 -13 0
1 102 8 0
1 -102 -8 0
1 98 74 0
1 -98 -74 0
1 127 24 0
1 -127 -24 0
1 53 100 0
1 -53 -100 0
1 62 2 0
1 -62 -2 0
1 127 29 0
1 -127 -29 0
1 38 52 0
1 -38 -52 0
1 78 94 0
1 -78 -94 0
1 108 110 0
1 -108 -110 0
1 97 14 0
1 -97 -14 0
1 23 25 0
1 -23 -25 0
1 98 118 0
1 -98 -118 0
1 50 89 0
1 -50 -89 0
1 120 134 0
1 -120 -134 0
1 94 76 0
1 -94 -76 0
1 62 45 0
1 -62 -45 0
1 111 80 0
1 -111 -80 0
1 6 78 0
1 -6 -78 0
1 21 25 0
1 -21 -25 0
1 46 105 0
1 -46 -105 0
1 17 136 0
1 -17 -136 0
1 131 112 0
1 -131 -112 0
1 47 18 0
1 -47 -18 0
1 60 123 0
1 -60 -123 0
1 124 135 0
1 -124 -135 0
1 70 4 0
1 -70 -4 0
1 122 50 0
1 -122 -50 0
1 23 13 0
1 -23 -13 0
1 54 51 0
1 -54 -51 0
1 65 107 0
1 -65 -107 0
1 87 28 0
1 -87 -28 0
1 64 13 0
1 -64 -13 0
1 64 107 0
1 -64 -107 0
1 98 100 0
1 -98 -100 0
1 51 124 0
1 -51 -124 0
1 98 102 0
1 -98 -102 0
1 6 55 0
1 -6 -55 0
1 133 44 0
1 -133 -44 0
1 60 106 0
1 -60 -106 0
1 98 65 0
1 -98 -65 0
1 138 139 0
1 -138 -139 0
1 115 113 0
1 -115 -113 0
1 4 77 0
1 -4 -77 0
1 92 84 0
1 -92 -84 0
1 48 118 0
1 -48 -118 0
1 99 15 0
1 -99 -15 0
1 122 52 0
1 -122 -52 0
1 32 117 0
1 -32 -117 0
1 2 66 0
1 -2 -66 0
1 137 72 0
1 -137 -72 0
1 51 55 0
1 -51 -55 0
1 70 125 0
1 -70 -125 0
1 83 65 0
1 -83 -65 0
1 67 27 0
1 -67 -27 0
1 121 103 0
1 -121 -103 0
1 137 56 0
1 -137 -56 0
1 122 38 0
1 -122 -38 0
1 122 117 0
1 -122 -117 0
1 97 20 0
1 -97 -20 0
1 126 76 0
1 -126 -76 0
1 17 35 0
1 -17 -35 0
1 21 28 0
1 -21 -28 0
1 69 55 0
1 -69 -55 0
1 132 11 0
1 -132 -11 0
1 136 83 0
1 -136 -83 0
1 96 107 0
1 -96 -107 0
1 31 120 0
1 -31 -120 0
1 76 31 0
1 -76 -31 0
1 99 124 0
1 -99 -124 0
1 86 114 0
1 -86 -114 0
1 133 8 0
1 -133 -8 0
1 112 63 0
1 -112 -63 0
1 49 59 0
1 -49 -59 0
1 97 86 0
1 -97 -86 0
1 117 4 0
1 -117 -4 0
1 70 120 0
1 -70 -120 0
1 133 36 0
1 -133 -36 0
1 89 27 0
1 -89 -27 0
1 60 25 0
1 -60 -25 0
1 123 72 0
1 -123 -72 0
1 44 104 0
1 -44 -104 0
1 89 139 0
1 -89 -139 0
1 121 124 0
1 -121 -124 0
1 24 136 0
1 -24 -136 0
1 13 127 0
1 -13 -127 0
1 62 106 0
1 -62 -106 0
1 49 55 0
1 -49 -55 0
1 45 3 0
1 -45 -3 0
1 122 132 0
1 -122 -132 0
1 31 107 0
1 -31 -107 0
1 93 134 0
1 -93 -134 0
1 73 83 0
1 -73 -83 0
1 42 31 0
1 -42 -31 0
1 45 72 0
1 -45 -72 0
1 45 100 0
1 -45 -100 0
1 33 61 0
1 -33 -61 0
1 57 89 0
1 -57 -89 0
1 25 43 0
1 -25 -43 0
1 137 117 0
1 -137 -117 0
1 86 56 0
1 -86 -56 0
1 83 9 0
1 -83 -9 0
1 128 40 0
1 -128 -40 0
1 140 55 0
1 -140 -55 0
1 62 9 0
1 -62 -9 0
1 119 45 0
1 -119 -45 0
1 126 66 0
1 -126 -66 0
1 46 80 0
1 -46 -80 0
1 86 95 0
1 -86 -95 0
1 7 77 0
1 -7 -77 0
1 22 91 0
1 -22 -91 0
1 92 101 0
1 -92 -101 0
1 112 59 0
1 -112 -59 0
1 112 48 0
1 -112 -48 0
1 67 75 0
1 -67 -75 0
1 112 46 0
1 -112 -46 0
1 66 109 0
1 -66 -109 0
1 14 72 0
1 -14 -72 0
1 140 94 0
1 -140 -94 0
1 95 2 0
1 -95 -2 0
1 122 12 0
1 -122 -12 0
1 104 8 0
1 -104 -8 0
1 115 40 0
1 -115 -40 0
1 62 74 0
1 -62 -74 0
1 53 84 0
1 -53 -84 0
1 60 83 0
1 -60 -83 0
1 108 135 0
1 -108 -135 0
1 70 2 0
1 -70 -2 0
1 22 11 0
1 -22 -11 0
1 136 75 0
1 -136 -75 0
1 22 58 0
1 -22 -58 0
1 67 17 0
1 -67 -17 0
1 129 136 0
1 -129 -136 0
1 73 96 0
1 -73 -96 0
1 101 74 0
1 -101 -74 0
1 111 91 0
1 -111 -91 0
1 78 100 0
1 -78 -100 0
1 1 76 0
1 -1 -76 0
1 93 65 0
1 -93 -65 0
1 124 77 0
1 -124 -77 0
1 47 19 0
1 -47 -19 0
1 56 42 0
1 -56 -42 0
1 64 33 0
1 -64 -33 0
1 86 115 0
1 -86 -115 0
1 67 82 0
1 -67 -82 0
1 127 116 0
1 -127 -116 0
1 47 2 0
1 -47 -2 0
1 23 130 0
1 -23 -130 0
1 86 102 0
1 -86 -102 0
1 60 10 0
1 -60 -10 0
1 67 102 0
1 -67 -102 0
1 47 16 0
1 -47 -16 0
1 10 100 0
1 -10 -100 0
1 108 136 0
1 -108 -136 0
1 53 82 0
1 -53 -82 0
1 71 56 0
1 -71 -56 0
1 103 109 0
1 -103 -109 0
1 52 110 0
1 -52 -110 0
1 88 94 0
1 -88 -94 0
1 73 54 0
1 -73 -54 0
1 38 61 0
1 -38 -61 0
1 73 15 0
1 -73 -15 0
1 60 39 0
1 -60 -39 0
1 16 102 0
1 -16 -102 0
1 18 48 0
1 -18 -48 0
1 54 57 0
1 -54 -57 0
1 98 24 0
1 -98 -24 0
1 91 120 0
1 -91 -120 0
1 21 111 0
1 -21 -111 0
1 104 86 0
1 -104 -86 0
1 94 65 0
1 -94 -65 0
1 67 83 0
1 -67 -83 0
1 10 109 0
1 -10 -109 0
1 25 4 0
1 -25 -4 0
1 81 127 0
1 -81 -127 0
1 96 80 0
1 -96 -80 0
1 71 75 0
1 -71 -75 0
1 6 125 0
1 -6 -125 0
1 50 134 0
1 -50 -134 0
1 95 7 0
1 -95 -7 0
1 22 102 0
1 -22 -102 0
1 111 50 0
1 -111 -50 0
1 34 102 0
1 -34 -102 0
1 94 3 0
1 -94 -3 0
1 114 68 0
1 -114 -68 0
1 44 99 0
1 -44 -99 0
1 41 77 0
1 -41 -77 0
1 2 79 0
1 -2 -79 0
1 93 61 0
1 -93 -61 0
1 81 120 0
1 -81 -120 0
1 114 102 0
1 -114 -102 0
1 93 128 0
1 -93 -128 0
1 138 28 0
1 -138 -28 0
1 46 94 0
1 -46 -94 0
1 137 46 0
1 -137 -46 0
1 108 66 0
1 -108 -66 0
1 60 124 0
1 -60 -124 0
1 81 12 0
1 -81 -12 0
1 21 71 0
1 -21 -71 0
1 122 133 0
1 -122 -133 0
1 112 139 0
1 -112 -139 0
1 119 28 0
1 -119 -28 0
1 46 79 0
1 -46 -79 0
1 85 110 0
1 -85 -110 0
1 86 42 0
1 -86 -42 0
1 25 106 0
1 -25 -106 0
1 44 137 0
1 -44 -137 0
1 95 3 0
1 -95 -3 0
1 111 132 0
1 -111 -132 0
1 57 10 0
1 -57 -10 0
1 72 90 0
1 -72 -90 0
1 20 15 0
1 -20 -15 0
1 14 113 0
1 -14 -113 0
1 35 50 0
1 -35 -50 0
1 93 80 0
1 -93 -80 0
1 82 136 0
1 -82 -136 0
1 29 109 0
1 -29 -109 0
1 103 26 0
1 -103 -26 0
1 3 59 0
1 -3 -59 0
1 81 93 0
1 -81 -93 0
1 121 1 0
1 -121 -1 0
1 46 130 0
1 -46 -130 0
1 97 15 0
1 -97 -15 0
1 22 48 0
1 -22 -48 0
1 138 100 0
1 -138 -100 0
1 24 72 0
1 -24 -72 0
1 48 120 0
1 -48 -120 0
1 41 10 0
1 -41 -10 0
1 21 48 0
1 -21 -48 0
1 92 102 0
1 -92 -102 0
1 60 138 0
1 -60 -138 0
1 132 71 0
1 -132 -71 0
1 88 59 0
1 -88 -59 0
1 70 50 0
1 -70 -50 0
1 81 125 0
1 -81 -125 0
1 49 132 0
1 -49 -132 0
1 1 103 0
1 -1 -103 0
1 131 70 0
1 -131 -70 0
1 44 113 0
1 -44 -113 0
1 91 11 0
1 -91 -11 0
1 60 3 0
1 -60 -3 0
1 44 73 0
1 -44 -73 0
1 131 106 0
1 -131 -106 0
1 62 72 0
1 -62 -72 0
1 56 31 0
1 -56 -31 0
1 119 134 0
1 -119 -134 0
1 49 20 0
1 -49 -20 0
1 49 45 0
1 -49 -45 0
1 47 128 0
1 -47 -128 0
1 94 138 0
1 -94 -138 0
1 82 30 0
1 -82 -30 0
1 62 48 0
1 -62 -48 0
1 22 55 0
1 -22 -55 0
1 17 104 0
1 -17 -104 0
1 33 59 0
1 -33 -59 0
1 104 36 0
1 -104 -36 0
1 11 59 0
1 -11 -59 0
1 6 58 0
1 -6 -58 0
1 58 106 0
1 -58 -106 0
1 137 78 0
1 -137 -78 0
1 81 103 0
1 -81 -103 0
1 140 130 0
1 -140 -130 0
1 57 8 0
1 -57 -8 0
1 64 97 0
1 -64 -97 0
1 5 41 0
1 -5 -41 0
1 83 8 0
1 -83 -8 0
1 91 139 0
1 -91 -139 0
1 54 11 0
1 -54 -11 0
1 132 34 0
1 -132 -34 0
1 81 36 0
1 -81 -36 0
1 57 28 0
1 -57 -28 0
1 101 29 0
1 -101 -29 0
1 5 84 0
1 -5 -84 0
1 101 14 0
1 -101 -14 0
1 36 118 0
1 -36 -118 0
1 140 11 0
1 -140 -11 0
1 112 72 0
1 -112 -72 0
1 107 61 0
1 -107 -61 0
1 138 105 0
1 -138 -105 0
1 128 84 0
1 -128 -84 0
1 31 77 0
1 -31 -77 0
1 101 79 0
1 -101 -79 0
1 34 84 0
1 -34 -84 0
1 76 10 0
1 -76 -10 0
1 20 101 0
1 -20 -101 0
1 99 2 0
1 -99 -2 0
1 58 135 0
1 -58 -135 0
1 96 7 0
1 -96 -7 0
1 123 101 0
1 -123 -101 0
1 28 40 0
1 -28 -40 0
1 98 33 0
1 -98 -33 0
1 51 2 0
1 -51 -2 0
1 47 10 0
1 -47 -10 0
1 36 80 0
1 -36 -80 0
1 29 72 0
1 -29 -72 0
1 63 14 0
1 -63 -14 0
1 62 114 0
1 -62 -114 0
1 58 89 0
1 -58 -89 0
1 15 9 0
1 -15 -9 0
1 41 18 0
1 -41 -18 0
1 32 82 0
1 -32 -82 0
1 99 39 0
1 -99 -39 0
1 44 26 0
1 -44 -26 0
1 103 107 0
1 -103 -107 0
1 133 33 0
1 -133 -33 0
1 133 128 0
1 -133 -128 0
1 81 102 0
1 -81 -102 0
1 116 10 0
1 -116 -10 0
1 64 56 0
1 -64 -56 0
1 120 40 0
1 -120 -40 0
1 83 39 0
1 -83 -39 0
1 51 90 0
1 -51 -90 0
1 99 139 0
1 -99 -139 0
1 48 61 0
1 -48 -61 0
1 11 8 0
1 -11 -8 0
1 70 135 0
1 -70 -135 0
1 45 109 0
1 -45 -109 0
1 96 43 0
1 -96 -43 0
1 81 25 0
1 -81 -25 0
1 127 3 0
1 -127 -3 0
1 93 110 0
1 -93 -110 0
1 51 41 0
1 -51 -41 0
1 126 9 0
1 -126 -9 0
1 114 37 0
1 -114 -37 0
1 122 48 0
1 -122 -48 0
1 64 86 0
1 -64 -86 0
1 78 3 0
1 -78 -3 0
1 133 47 0
1 -133 -47 0
1 44 132 0
1 -44 -132 0
1 111 94 0
1 -111 -94 0
1 101 72 0
1 -101 -72 0
1 41 85 0
1 -41 -85 0
1 123 77 0
1 -123 -77 0
1 31 100 0
1 -31 -100 0
1 3 61 0
1 -3 -61 0
1 49 33 0
1 -49 -33 0
1 82 128 0
1 -82 -128 0
1 127 74 0
1 -127 -74 0
1 125 128 0
1 -125 -128 0
1 140 58 0
1 -140 -58 0
1 33 28 0
1 -33 -28 0
1 104 2 0
1 -104 -2 0
1 74 10 0
1 -74 -10 0
1 95 91 0
1 -95 -91 0
1 14 26 0
1 -14 -26 0
1 132 12 0
1 -132 -12 0
1 98 47 0
1 -98 -47 0
1 4 12 0
1 -4 -12 0
1 88 117 0
1 -88 -117 0
1 45 37 0
1 -45 -37 0
